# Variables
variable T       equal   1.0
variable rc      equal   1.0
variable rc_comm equal   6.0
variable ndump   equal  1000
variable nthermo equal  100
variable nrun    equal  1000000

# General
units            lj
atom_style       full
dimension        3
newton           on on
boundary         p p p
comm_modify      vel yes cutoff ${rc_comm}
bond_style       harmonic
special_bonds    lj/coul 1.0 1.0 1.0
timestep  0.05

# read initial configuration
read_data      ./Wire.data

neighbor       2.0 bin
neigh_modify   delay 0 every 1 check yes

run_style      verlet

pair_style dpd ${T} ${rc} 12345

pair_coeff  *   *   25.0   4.5   1.0000
pair_coeff  1   2   40.0   4.5   1.0000 # A-B
pair_coeff  1   3   60.0   4.5   1.0000 # A-W
pair_coeff  2   3   30.0   4.5   1.0000 # B-W

# Minimization
min_style        sd
minimize         1.0e-3 1.0e-3 1000 100000
min_style        cg
min_modify       line quadratic
minimize         1.0e-4 1.0e-4 1000 100000

reset_timestep   0

# Dump Atom Positions for Analysis & Visualization
dump             dump_cus all custom ${ndump} traj.lammpstrj id element x y z
dump_modify      dump_cus flush yes pbc yes append yes element A B W

# Output stats
thermo_style     custom step etotal pe temp vol press
thermo_modify    flush yes lost warn
thermo           ${nthermo}

velocity         all create ${T} 58531416 mom yes dist gaussian

# Run
fix   1   all nve
run   ${nrun}

# DONE
